NAME : tsp25_12.183.tour
COMMENT : Length = 183
COMMENT : Found by LKH [Keld Helsgaun]
TYPE : TOUR
DIMENSION : 25
TOUR_SECTION
1
17
7
24
2
9
4
16
20
21
18
3
25
10
8
5
11
19
13
12
23
6
14
15
22
-1
EOF
